words_hard_train/1694.qaiger
aag 123 16 0 1 107
2
4
8
10
20
22
34
66
74
96
104
118
138
158
174
190
246
6 2 4
12 8 10
14 7 13
16 9 11
18 15 17
24 21 23
26 20 22
28 25 27
30 18 28
32 31 27
36 34 4
38 35 5
40 37 39
42 33 40
44 32 41
46 43 45
48 3 11
50 48 23
52 50 5
54 13 17
56 52 55
58 19 29
60 59 31
62 56 61
64 47 62
68 65 67
70 64 66
72 69 71
76 74 8
78 75 9
80 77 79
82 43 37
84 80 83
86 81 82
88 85 87
90 72 88
92 73 89
94 91 93
98 96 2
100 2 10
102 101 49
106 102 104
108 99 107
110 103 105
112 109 111
114 49 22
116 115 51
120 117 119
122 116 118
124 121 123
126 112 124
128 127 123
130 3 5
132 131 7
134 132 51
136 135 53
140 137 139
142 136 138
144 141 143
146 129 144
148 147 143
150 53 7
152 151 54
154 150 55
156 153 155
160 156 159
162 157 158
164 161 163
166 149 164
168 167 163
170 57 60
172 171 63
176 173 175
178 172 174
180 177 179
182 169 180
184 183 179
186 46 63
188 187 65
192 189 191
194 188 190
196 193 195
198 185 196
200 199 195
202 95 201
204 94 200
206 203 205
208 97 3
210 128 145
212 211 147
214 209 213
216 148 165
218 217 167
220 214 219
222 220 99
224 107 111
226 113 125
228 227 127
230 225 229
232 222 230
234 168 181
236 235 183
238 232 237
240 184 197
242 241 199
244 238 243
246 207 244
i0 1 x1[0]
i1 1 x1[3]
i2 1 x1[4]
i3 1 x1[1]
i4 1 x1[5]
i5 1 x1[2]
i6 1 x1[6]
i7 2 y1[7]
i8 1 x1[7]
i9 2 y1[0]
i10 2 y1[1]
i11 2 y1[2]
i12 2 y1[3]
i13 2 y1[4]
i14 2 y1[5]
i15 2 y1[6]
o0 bool[0]
c
simplified
  ==
    subtract
      2 y1
      add
        1 x1
        << 3
          1 x1
    1
