words_hard_train/1694.qaiger.qdimacs
p cnf 123 322
a 1 2 4 5 37 10 11 17 0
e 3 6 7 8 9 12 13 14 15 16 18 19 20 21 22 23 24 25 26 27 28 29 30 31 32 33 34 35 36 38 39 40 41 42 43 44 45 46 47 48 49 50 51 52 53 54 55 56 57 58 59 60 61 62 63 64 65 66 67 68 69 70 71 72 73 74 75 76 77 78 79 80 81 82 83 84 85 86 87 88 89 90 91 92 93 94 95 96 97 98 99 100 101 102 103 104 105 106 107 108 109 110 111 112 113 114 115 116 117 118 119 120 121 122 123 0
-1 -2 3 0
1 -3 0
2 -3 0
-4 -5 6 0
4 -6 0
5 -6 0
3 6 7 0
-3 -7 0
-6 -7 0
4 5 8 0
-4 -8 0
-5 -8 0
7 8 9 0
-7 -9 0
-8 -9 0
10 11 12 0
-10 -12 0
-11 -12 0
-10 -11 13 0
10 -13 0
11 -13 0
12 13 14 0
-12 -14 0
-13 -14 0
-9 -14 15 0
9 -15 0
14 -15 0
15 13 16 0
-15 -16 0
-13 -16 0
-17 -2 18 0
17 -18 0
2 -18 0
17 2 19 0
-17 -19 0
-2 -19 0
18 19 20 0
-18 -20 0
-19 -20 0
16 -20 21 0
-16 -21 0
20 -21 0
-16 20 22 0
16 -22 0
-20 -22 0
21 22 23 0
-21 -23 0
-22 -23 0
1 5 24 0
-1 -24 0
-5 -24 0
-24 11 25 0
24 -25 0
-11 -25 0
-25 2 26 0
25 -26 0
-2 -26 0
6 8 27 0
-6 -27 0
-8 -27 0
-26 27 28 0
26 -28 0
-27 -28 0
9 14 29 0
-9 -29 0
-14 -29 0
29 15 30 0
-29 -30 0
-15 -30 0
-28 30 31 0
28 -31 0
-30 -31 0
23 -31 32 0
-23 -32 0
31 -32 0
32 33 34 0
-32 -34 0
-33 -34 0
-32 -33 35 0
32 -35 0
33 -35 0
34 35 36 0
-34 -36 0
-35 -36 0
-37 -4 38 0
37 -38 0
4 -38 0
37 4 39 0
-37 -39 0
-4 -39 0
38 39 40 0
-38 -40 0
-39 -40 0
21 18 41 0
-21 -41 0
-18 -41 0
-40 41 42 0
40 -42 0
-41 -42 0
40 -41 43 0
-40 -43 0
41 -43 0
42 43 44 0
-42 -44 0
-43 -44 0
-36 -44 45 0
36 -45 0
44 -45 0
36 44 46 0
-36 -46 0
-44 -46 0
45 46 47 0
-45 -47 0
-46 -47 0
-48 -1 49 0
48 -49 0
1 -49 0
-1 -5 50 0
1 -50 0
5 -50 0
50 24 51 0
-50 -51 0
-24 -51 0
-51 -52 53 0
51 -53 0
52 -53 0
49 53 54 0
-49 -54 0
-53 -54 0
51 52 55 0
-51 -55 0
-52 -55 0
54 55 56 0
-54 -56 0
-55 -56 0
24 -11 57 0
-24 -57 0
11 -57 0
57 25 58 0
-57 -58 0
-25 -58 0
58 59 60 0
-58 -60 0
-59 -60 0
-58 -59 61 0
58 -61 0
59 -61 0
60 61 62 0
-60 -62 0
-61 -62 0
-56 -62 63 0
56 -63 0
62 -63 0
63 61 64 0
-63 -64 0
-61 -64 0
1 2 65 0
-1 -65 0
-2 -65 0
65 3 66 0
-65 -66 0
-3 -66 0
-66 25 67 0
66 -67 0
-25 -67 0
67 26 68 0
-67 -68 0
-26 -68 0
68 69 70 0
-68 -70 0
-69 -70 0
-68 -69 71 0
68 -71 0
69 -71 0
70 71 72 0
-70 -72 0
-71 -72 0
64 -72 73 0
-64 -73 0
72 -73 0
73 71 74 0
-73 -74 0
-71 -74 0
26 3 75 0
-26 -75 0
-3 -75 0
75 -27 76 0
-75 -76 0
27 -76 0
-75 27 77 0
75 -77 0
-27 -77 0
76 77 78 0
-76 -78 0
-77 -78 0
-78 79 80 0
78 -80 0
-79 -80 0
78 -79 81 0
-78 -81 0
79 -81 0
80 81 82 0
-80 -82 0
-81 -82 0
74 -82 83 0
-74 -83 0
82 -83 0
83 81 84 0
-83 -84 0
-81 -84 0
28 -30 85 0
-28 -85 0
30 -85 0
85 31 86 0
-85 -86 0
-31 -86 0
86 87 88 0
-86 -88 0
-87 -88 0
-86 -87 89 0
86 -89 0
87 -89 0
88 89 90 0
-88 -90 0
-89 -90 0
84 -90 91 0
-84 -91 0
90 -91 0
91 89 92 0
-91 -92 0
-89 -92 0
-23 31 93 0
23 -93 0
-31 -93 0
93 32 94 0
-93 -94 0
-32 -94 0
94 95 96 0
-94 -96 0
-95 -96 0
-94 -95 97 0
94 -97 0
95 -97 0
96 97 98 0
-96 -98 0
-97 -98 0
92 -98 99 0
-92 -99 0
98 -99 0
99 97 100 0
-99 -100 0
-97 -100 0
47 100 101 0
-47 -101 0
-100 -101 0
-47 -100 102 0
47 -102 0
100 -102 0
101 102 103 0
-101 -103 0
-102 -103 0
48 1 104 0
-48 -104 0
-1 -104 0
-64 72 105 0
64 -105 0
-72 -105 0
105 73 106 0
-105 -106 0
-73 -106 0
104 106 107 0
-104 -107 0
-106 -107 0
-74 82 108 0
74 -108 0
-82 -108 0
108 83 109 0
-108 -109 0
-83 -109 0
-107 109 110 0
107 -110 0
-109 -110 0
-110 49 111 0
110 -111 0
-49 -111 0
53 55 112 0
-53 -112 0
-55 -112 0
56 62 113 0
-56 -113 0
-62 -113 0
113 63 114 0
-113 -114 0
-63 -114 0
112 114 115 0
-112 -115 0
-114 -115 0
-111 -115 116 0
111 -116 0
115 -116 0
-84 90 117 0
84 -117 0
-90 -117 0
117 91 118 0
-117 -118 0
-91 -118 0
-116 118 119 0
116 -119 0
-118 -119 0
-92 98 120 0
92 -120 0
-98 -120 0
120 99 121 0
-120 -121 0
-99 -121 0
-119 121 122 0
119 -122 0
-121 -122 0
103 -122 123 0
-103 -123 0
122 -123 0
123 0
